NAME : A-n39-k5
COMMENT : (Augerat et al, Min no of trucks: 5, Optimal value: 822)
TYPE : CVRP
DIMENSION : 39
EDGE_WEIGHT_TYPE : EUC_2D 
CAPACITY : 100
NODE_COORD_SECTION 
 1 9 35
 2 43 19
 3 79 35
 4 93 7
 5 13 35
 6 67 13
 7 31 77
 8 81 7
 9 27 49
 10 27 35
 11 69 23
 12 31 51
 13 27 27
 14 15 83
 15 7 35
 16 53 25
 17 75 13
 18 47 49
 19 25 33
 20 1 23
 21 45 11
 22 1 47
 23 93 15
 24 41 9
 25 75 55
 26 3 1
 27 51 67
 28 57 91
 29 21 97
 30 55 13
 31 3 71
 32 37 19
 33 73 21
 34 19 19
 35 75 73
 36 93 49
 37 41 87
 38 97 73
 39 45 29
DEMAND_SECTION 
1 0 
2 5 
3 24 
4 3 
5 20 
6 26 
7 23 
8 15 
9 3 
10 20 
11 16 
12 9 
13 21 
14 3 
15 24 
16 14 
17 6 
18 6 
19 13 
20 5 
21 3 
22 3 
23 20 
24 16 
25 22 
26 10 
27 12 
28 20 
29 24 
30 6 
31 1 
32 2 
33 13 
34 7 
35 6 
36 24 
37 19 
38 4 
39 7 
DEPOT_SECTION 
 1  
 -1  
EOF 
